max: +10 X1 +20 X2 +100 X3 +50 X4 +5 X5 +1 X6;
C1: +1 X1 +1 X2 +1 X3 +1 X4 <= +3;
C2: +1 X1 +1 X2 +2 X3 +1 X4 <= +2;
C3: +1 X3 +1 X4 +1 X5 +1 X6 <= +2;
C4: +3 X3 +1 X4 +2 X5 +1 X6 <= +5;
X1 <= 1;
X1 >= 0;
X2 <= 1;
X2 >= 0;
X3 <= 1;
X3 >= 0;
X4 <= 1;
X4 >= 0;
X5 <= 1;
X5 >= 0;
X6 <= 1;
X6 >= 0;
